; benchmark generated from python API
(set-info :status unknown)
(declare-datatypes ((IntState 0)) (((Mk1 (val1 Int)) (Mk2 (val2 Int)))))
 (declare-fun c_main_~i~6 () Int)
(declare-fun c_main_~j~6 () Int)
(declare-fun c_main_~k~6 () Int)
(assert
 (let (($x67 (<= c_main_~j~6 (* 2 c_main_~i~6))))
 (let (($x79 (exists ((main_~i~6_st IntState) (val!165 Int) )(let ((?x56 (val2 main_~i~6_st)))
 (let (($x110 (<= ?x56 3)))
 (let (($x52 (not (= main_~i~6_st (Mk1 val!165)))))
 (and $x52 (and $x110 (<= c_main_~j~6 (* 2 ?x56)) (<= ?x56 c_main_~k~6)))))))
 ))
 (let (($x60 (<= c_main_~i~6 3)))
 (let (($x97 (exists ((v_nnf_20 Int) )(let (($x82 (<= v_nnf_20 3)))
 (let (($x11 (<= c_main_~j~6 (* 2 v_nnf_20))))
 (and (<= (+ v_nnf_20 1) c_main_~k~6) $x11 $x82))))
 ))
 (and (and $x60 $x97 $x67) (not (and $x60 $x79 $x67))))))))
(check-sat)
